sat
(= |goto_symex::&92;guard#1| false)
(= |goto_symex::&92;guard#2| false)
(= |goto_symex::&92;guard#3| true)
(= |goto_symex::&92;guard#4| false)
(= |goto_symex::&92;guard#5| false)
(= |goto_symex::&92;guard#6| false)
(= |goto_symex::&92;guard#7| false)
(= |goto_symex::&92;guard#8| false)
(= |goto_symex::&92;guard#9| false)
(= |goto_symex::&92;guard#10| false)
(= |goto_symex::&92;guard#11| true)
(= |goto_symex::&92;guard#12| false)
(= |goto_symex::&92;guard#13| false)
(= |goto_symex::&92;guard#14| true)
(= |goto_symex::&92;guard#15| false)
(= |goto_symex::&92;guard#16| false)
(= |goto_symex::&92;guard#17| true)
(= |goto_symex::&92;guard#18| true)
(= |goto_symex::&92;guard#19| true)
(= |memory_model::choice_rf_0_26_0_8_T_0| true)
(= |memory_model::choice_rf_0_30_0_8_T_1| false)
(= |memory_model::choice_rf_0_19_0_6_T_2| false)
(= |memory_model::choice_rf_0_19_0_16_T_3| true)
(= |memory_model::choice_rf_0_25_0_6_T_4| false)
(= |memory_model::choice_rf_0_25_0_16_T_5| false)
(= |memory_model::choice_rf_0_25_0_20_T_6| true)
(= |memory_model::choice_rf_0_29_0_6_T_7| false)
(= |memory_model::choice_rf_0_29_0_16_T_8| false)
(= |memory_model::choice_rf_0_29_0_20_T_9| true)
(= |memory_model::choice_rf_2_2_0_10_F_10| false)
(= |memory_model::choice_rf_2_2_1_8_F_11| true)
(= |memory_model::choice_rf_2_2_1_19_F_12| false)
(= |memory_model::choice_rf_2_2_1_30_F_13| false)
(= |memory_model::choice_rf_2_12_0_10_F_14| false)
(= |memory_model::choice_rf_2_12_1_8_F_15| false)
(= |memory_model::choice_rf_2_12_1_19_F_16| true)
(= |memory_model::choice_rf_2_12_1_30_F_17| false)
(= |memory_model::choice_rf_2_22_0_10_F_18| false)
(= |memory_model::choice_rf_2_22_1_8_F_19| false)
(= |memory_model::choice_rf_2_22_1_19_F_20| true)
(= |memory_model::choice_rf_2_22_1_30_F_21| false)
(= |memory_model::choice_rf_1_2_0_12_F_22| true)
(= |memory_model::choice_rf_1_2_2_5_F_23| false)
(= |memory_model::choice_rf_1_2_2_15_F_24| false)
(= |memory_model::choice_rf_1_2_2_25_F_25| false)
(= |memory_model::choice_rf_1_3_0_12_F_26| true)
(= |memory_model::choice_rf_1_3_2_5_F_27| false)
(= |memory_model::choice_rf_1_3_2_15_F_28| false)
(= |memory_model::choice_rf_1_3_2_25_F_29| false)
(= |memory_model::choice_rf_1_6_0_12_F_30| true)
(= |memory_model::choice_rf_1_6_2_5_F_31| false)
(= |memory_model::choice_rf_1_6_2_15_F_32| false)
(= |memory_model::choice_rf_1_6_2_25_F_33| false)
(= |memory_model::choice_rf_1_13_0_12_F_34| false)
(= |memory_model::choice_rf_1_13_1_7_F_35| false)
(= |memory_model::choice_rf_1_13_2_5_F_36| true)
(= |memory_model::choice_rf_1_13_2_15_F_37| false)
(= |memory_model::choice_rf_1_13_2_25_F_38| false)
(= |memory_model::choice_rf_1_14_0_12_F_39| false)
(= |memory_model::choice_rf_1_14_1_7_F_40| false)
(= |memory_model::choice_rf_1_14_2_5_F_41| true)
(= |memory_model::choice_rf_1_14_2_15_F_42| false)
(= |memory_model::choice_rf_1_14_2_25_F_43| false)
(= |memory_model::choice_rf_1_17_0_12_F_44| false)
(= |memory_model::choice_rf_1_17_1_7_F_45| false)
(= |memory_model::choice_rf_1_17_2_5_F_46| true)
(= |memory_model::choice_rf_1_17_2_15_F_47| false)
(= |memory_model::choice_rf_1_17_2_25_F_48| false)
(= |memory_model::choice_rf_1_24_0_12_F_49| false)
(= |memory_model::choice_rf_1_24_1_7_F_50| false)
(= |memory_model::choice_rf_1_24_1_18_F_51| true)
(= |memory_model::choice_rf_1_24_2_5_F_52| false)
(= |memory_model::choice_rf_1_24_2_15_F_53| false)
(= |memory_model::choice_rf_1_24_2_25_F_54| false)
(= |memory_model::choice_rf_1_25_0_12_F_55| false)
(= |memory_model::choice_rf_1_25_1_7_F_56| false)
(= |memory_model::choice_rf_1_25_1_18_F_57| true)
(= |memory_model::choice_rf_1_25_2_5_F_58| false)
(= |memory_model::choice_rf_1_25_2_15_F_59| false)
(= |memory_model::choice_rf_1_25_2_25_F_60| false)
(= |memory_model::choice_rf_1_28_0_12_F_61| false)
(= |memory_model::choice_rf_1_28_1_7_F_62| false)
(= |memory_model::choice_rf_1_28_1_18_F_63| true)
(= |memory_model::choice_rf_1_28_2_5_F_64| false)
(= |memory_model::choice_rf_1_28_2_15_F_65| false)
(= |memory_model::choice_rf_1_28_2_25_F_66| false)
(= |memory_model::choice_rf_2_3_0_12_F_67| false)
(= |memory_model::choice_rf_2_3_1_7_F_68| true)
(= |memory_model::choice_rf_2_3_1_18_F_69| false)
(= |memory_model::choice_rf_2_3_1_29_F_70| false)
(= |memory_model::choice_rf_2_4_0_12_F_71| false)
(= |memory_model::choice_rf_2_4_1_7_F_72| true)
(= |memory_model::choice_rf_2_4_1_18_F_73| false)
(= |memory_model::choice_rf_2_4_1_29_F_74| false)
(= |memory_model::choice_rf_2_6_0_12_F_75| false)
(= |memory_model::choice_rf_2_6_1_7_F_76| false)
(= |memory_model::choice_rf_2_6_1_18_F_77| false)
(= |memory_model::choice_rf_2_6_1_29_F_78| false)
(= |memory_model::choice_rf_2_6_2_5_F_79| true)
(= |memory_model::choice_rf_2_13_0_12_F_80| false)
(= |memory_model::choice_rf_2_13_1_7_F_81| false)
(= |memory_model::choice_rf_2_13_1_18_F_82| true)
(= |memory_model::choice_rf_2_13_1_29_F_83| false)
(= |memory_model::choice_rf_2_13_2_5_F_84| false)
(= |memory_model::choice_rf_2_14_0_12_F_85| false)
(= |memory_model::choice_rf_2_14_1_7_F_86| false)
(= |memory_model::choice_rf_2_14_1_18_F_87| true)
(= |memory_model::choice_rf_2_14_1_29_F_88| false)
(= |memory_model::choice_rf_2_14_2_5_F_89| false)
(= |memory_model::choice_rf_2_16_0_12_F_90| false)
(= |memory_model::choice_rf_2_16_1_7_F_91| false)
(= |memory_model::choice_rf_2_16_1_18_F_92| false)
(= |memory_model::choice_rf_2_16_1_29_F_93| false)
(= |memory_model::choice_rf_2_16_2_5_F_94| false)
(= |memory_model::choice_rf_2_16_2_15_F_95| true)
(= |memory_model::choice_rf_2_23_0_12_F_96| false)
(= |memory_model::choice_rf_2_23_1_7_F_97| false)
(= |memory_model::choice_rf_2_23_1_18_F_98| false)
(= |memory_model::choice_rf_2_23_1_29_F_99| false)
(= |memory_model::choice_rf_2_23_2_5_F_100| false)
(= |memory_model::choice_rf_2_23_2_15_F_101| true)
(= |memory_model::choice_rf_2_24_0_12_F_102| false)
(= |memory_model::choice_rf_2_24_1_7_F_103| false)
(= |memory_model::choice_rf_2_24_1_18_F_104| false)
(= |memory_model::choice_rf_2_24_1_29_F_105| false)
(= |memory_model::choice_rf_2_24_2_5_F_106| false)
(= |memory_model::choice_rf_2_24_2_15_F_107| false)
(= |memory_model::choice_rf_2_26_0_12_F_108| false)
(= |memory_model::choice_rf_2_26_1_7_F_109| false)
(= |memory_model::choice_rf_2_26_1_18_F_110| false)
(= |memory_model::choice_rf_2_26_1_29_F_111| false)
(= |memory_model::choice_rf_2_26_2_5_F_112| false)
(= |memory_model::choice_rf_2_26_2_15_F_113| false)
(= |memory_model::choice_rf_2_26_2_25_F_114| false)
(= |memory_model::choice_rf_1_4_0_9_F_115| true)
(= |memory_model::choice_rf_1_15_0_9_F_116| false)
(= |memory_model::choice_rf_1_15_1_5_F_117| true)
(= |memory_model::choice_rf_1_26_0_9_F_118| false)
(= |memory_model::choice_rf_1_26_1_5_F_119| false)
(= |memory_model::choice_rf_1_26_1_16_F_120| false)
(= |memory_model::choice_rf_2_7_0_9_F_121| false)
(= |memory_model::choice_rf_2_7_1_5_F_122| true)
(= |memory_model::choice_rf_2_7_1_16_F_123| false)
(= |memory_model::choice_rf_2_7_1_27_F_124| false)
(= |memory_model::choice_rf_2_17_0_9_F_125| false)
(= |memory_model::choice_rf_2_17_1_5_F_126| false)
(= |memory_model::choice_rf_2_17_1_16_F_127| true)
(= |memory_model::choice_rf_2_17_1_27_F_128| false)
(= |memory_model::choice_rf_2_27_0_9_F_129| false)
(= |memory_model::choice_rf_2_27_1_5_F_130| false)
(= |memory_model::choice_rf_2_27_1_16_F_131| false)
(= |memory_model::choice_rf_2_27_1_27_F_132| false)
(= |memory_model::choice_rf_1_0_0_11_F_133| false)
(= |memory_model::choice_rf_1_0_0_15_F_134| true)
(= |memory_model::choice_rf_1_0_2_1_F_135| false)
(= |memory_model::choice_rf_1_0_2_9_F_136| false)
(= |memory_model::choice_rf_1_0_2_11_F_137| false)
(= |memory_model::choice_rf_1_0_2_19_F_138| false)
(= |memory_model::choice_rf_1_0_2_21_F_139| false)
(= |memory_model::choice_rf_1_0_2_29_F_140| false)
(= |memory_model::choice_rf_1_9_0_11_F_141| false)
(= |memory_model::choice_rf_1_9_0_15_F_142| false)
(= |memory_model::choice_rf_1_9_1_1_F_143| true)
(= |memory_model::choice_rf_1_9_2_1_F_144| false)
(= |memory_model::choice_rf_1_9_2_9_F_145| false)
(= |memory_model::choice_rf_1_9_2_11_F_146| false)
(= |memory_model::choice_rf_1_9_2_19_F_147| false)
(= |memory_model::choice_rf_1_9_2_21_F_148| false)
(= |memory_model::choice_rf_1_9_2_29_F_149| false)
(= |memory_model::choice_rf_1_11_0_11_F_150| false)
(= |memory_model::choice_rf_1_11_0_15_F_151| false)
(= |memory_model::choice_rf_1_11_1_1_F_152| false)
(= |memory_model::choice_rf_1_11_1_10_F_153| false)
(= |memory_model::choice_rf_1_11_2_1_F_154| false)
(= |memory_model::choice_rf_1_11_2_9_F_155| true)
(= |memory_model::choice_rf_1_11_2_11_F_156| false)
(= |memory_model::choice_rf_1_11_2_19_F_157| false)
(= |memory_model::choice_rf_1_11_2_21_F_158| false)
(= |memory_model::choice_rf_1_11_2_29_F_159| false)
(= |memory_model::choice_rf_1_20_0_11_F_160| false)
(= |memory_model::choice_rf_1_20_0_15_F_161| false)
(= |memory_model::choice_rf_1_20_1_1_F_162| false)
(= |memory_model::choice_rf_1_20_1_10_F_163| false)
(= |memory_model::choice_rf_1_20_1_12_F_164| true)
(= |memory_model::choice_rf_1_20_2_1_F_165| false)
(= |memory_model::choice_rf_1_20_2_9_F_166| false)
(= |memory_model::choice_rf_1_20_2_11_F_167| false)
(= |memory_model::choice_rf_1_20_2_19_F_168| false)
(= |memory_model::choice_rf_1_20_2_21_F_169| false)
(= |memory_model::choice_rf_1_20_2_29_F_170| false)
(= |memory_model::choice_rf_1_22_0_11_F_171| false)
(= |memory_model::choice_rf_1_22_0_15_F_172| false)
(= |memory_model::choice_rf_1_22_1_1_F_173| false)
(= |memory_model::choice_rf_1_22_1_10_F_174| false)
(= |memory_model::choice_rf_1_22_1_12_F_175| false)
(= |memory_model::choice_rf_1_22_1_21_F_176| false)
(= |memory_model::choice_rf_1_22_2_1_F_177| false)
(= |memory_model::choice_rf_1_22_2_9_F_178| false)
(= |memory_model::choice_rf_1_22_2_11_F_179| true)
(= |memory_model::choice_rf_1_22_2_19_F_180| false)
(= |memory_model::choice_rf_1_22_2_21_F_181| false)
(= |memory_model::choice_rf_1_22_2_29_F_182| false)
(= |memory_model::choice_rf_1_31_0_11_F_183| false)
(= |memory_model::choice_rf_1_31_0_15_F_184| false)
(= |memory_model::choice_rf_1_31_1_1_F_185| false)
(= |memory_model::choice_rf_1_31_1_10_F_186| false)
(= |memory_model::choice_rf_1_31_1_12_F_187| false)
(= |memory_model::choice_rf_1_31_1_21_F_188| false)
(= |memory_model::choice_rf_1_31_1_23_F_189| false)
(= |memory_model::choice_rf_1_31_2_1_F_190| false)
(= |memory_model::choice_rf_1_31_2_9_F_191| false)
(= |memory_model::choice_rf_1_31_2_11_F_192| false)
(= |memory_model::choice_rf_1_31_2_19_F_193| false)
(= |memory_model::choice_rf_1_31_2_21_F_194| false)
(= |memory_model::choice_rf_1_31_2_29_F_195| false)
(= |memory_model::choice_rf_2_0_0_11_F_196| false)
(= |memory_model::choice_rf_2_0_0_15_F_197| false)
(= |memory_model::choice_rf_2_0_1_1_F_198| false)
(= |memory_model::choice_rf_2_0_1_10_F_199| true)
(= |memory_model::choice_rf_2_0_1_12_F_200| false)
(= |memory_model::choice_rf_2_0_1_21_F_201| false)
(= |memory_model::choice_rf_2_0_1_23_F_202| false)
(= |memory_model::choice_rf_2_0_1_32_F_203| false)
(= |memory_model::choice_rf_2_8_0_11_F_204| false)
(= |memory_model::choice_rf_2_8_0_15_F_205| false)
(= |memory_model::choice_rf_2_8_1_1_F_206| false)
(= |memory_model::choice_rf_2_8_1_10_F_207| false)
(= |memory_model::choice_rf_2_8_1_12_F_208| false)
(= |memory_model::choice_rf_2_8_1_21_F_209| false)
(= |memory_model::choice_rf_2_8_1_23_F_210| false)
(= |memory_model::choice_rf_2_8_1_32_F_211| false)
(= |memory_model::choice_rf_2_8_2_1_F_212| true)
(= |memory_model::choice_rf_2_10_0_11_F_213| false)
(= |memory_model::choice_rf_2_10_0_15_F_214| false)
(= |memory_model::choice_rf_2_10_1_1_F_215| false)
(= |memory_model::choice_rf_2_10_1_10_F_216| false)
(= |memory_model::choice_rf_2_10_1_12_F_217| false)
(= |memory_model::choice_rf_2_10_1_21_F_218| true)
(= |memory_model::choice_rf_2_10_1_23_F_219| false)
(= |memory_model::choice_rf_2_10_1_32_F_220| false)
(= |memory_model::choice_rf_2_10_2_1_F_221| false)
(= |memory_model::choice_rf_2_10_2_9_F_222| false)
(= |memory_model::choice_rf_2_18_0_11_F_223| false)
(= |memory_model::choice_rf_2_18_0_15_F_224| false)
(= |memory_model::choice_rf_2_18_1_1_F_225| false)
(= |memory_model::choice_rf_2_18_1_10_F_226| false)
(= |memory_model::choice_rf_2_18_1_12_F_227| false)
(= |memory_model::choice_rf_2_18_1_21_F_228| false)
(= |memory_model::choice_rf_2_18_1_23_F_229| false)
(= |memory_model::choice_rf_2_18_1_32_F_230| false)
(= |memory_model::choice_rf_2_18_2_1_F_231| false)
(= |memory_model::choice_rf_2_18_2_9_F_232| false)
(= |memory_model::choice_rf_2_18_2_11_F_233| true)
(= |memory_model::choice_rf_2_20_0_11_F_234| false)
(= |memory_model::choice_rf_2_20_0_15_F_235| false)
(= |memory_model::choice_rf_2_20_1_1_F_236| false)
(= |memory_model::choice_rf_2_20_1_10_F_237| false)
(= |memory_model::choice_rf_2_20_1_12_F_238| false)
(= |memory_model::choice_rf_2_20_1_21_F_239| false)
(= |memory_model::choice_rf_2_20_1_23_F_240| false)
(= |memory_model::choice_rf_2_20_1_32_F_241| false)
(= |memory_model::choice_rf_2_20_2_1_F_242| false)
(= |memory_model::choice_rf_2_20_2_9_F_243| false)
(= |memory_model::choice_rf_2_20_2_11_F_244| false)
(= |memory_model::choice_rf_2_20_2_19_F_245| true)
(= |memory_model::choice_rf_2_28_0_11_F_246| false)
(= |memory_model::choice_rf_2_28_0_15_F_247| false)
(= |memory_model::choice_rf_2_28_1_1_F_248| false)
(= |memory_model::choice_rf_2_28_1_10_F_249| false)
(= |memory_model::choice_rf_2_28_1_12_F_250| false)
(= |memory_model::choice_rf_2_28_1_21_F_251| false)
(= |memory_model::choice_rf_2_28_1_23_F_252| false)
(= |memory_model::choice_rf_2_28_1_32_F_253| false)
(= |memory_model::choice_rf_2_28_2_1_F_254| false)
(= |memory_model::choice_rf_2_28_2_9_F_255| false)
(= |memory_model::choice_rf_2_28_2_11_F_256| false)
(= |memory_model::choice_rf_2_28_2_19_F_257| false)
(= |memory_model::choice_rf_2_28_2_21_F_258| false)
(= |memory_model::choice_rf_0_23_0_13_F_259| false)
(= |memory_model::choice_rf_0_23_0_17_F_260| true)
(= |memory_model::choice_rf_0_24_0_13_F_261| false)
(= |memory_model::choice_rf_0_24_0_17_F_262| true)
(= |memory_model::choice_rf_0_27_0_14_F_263| false)
(= |memory_model::choice_rf_0_27_0_21_F_264| true)
(= |memory_model::choice_rf_0_28_0_14_F_265| true)
(= |memory_model::choice_rf_0_28_0_21_F_266| false)
(= |memory_model::choice_ws-ext_0_10_1_8_F_267| true)
(= |memory_model::choice_ws-ext_0_10_1_19_F_268| true)
(= |memory_model::choice_ws-ext_0_10_1_30_F_269| true)
(= |memory_model::choice_ws-ext_0_12_1_7_F_270| true)
(= |memory_model::choice_ws-ext_0_12_1_18_F_271| true)
(= |memory_model::choice_ws-ext_0_12_1_29_F_272| true)
(= |memory_model::choice_ws-ext_0_12_2_5_F_273| true)
(= |memory_model::choice_ws-ext_0_12_2_15_F_274| true)
(= |memory_model::choice_ws-ext_0_12_2_25_F_275| true)
(= |memory_model::choice_ws-ext_1_7_2_5_F_276| true)
(= |memory_model::choice_ws-ext_1_7_2_15_F_277| true)
(= |memory_model::choice_ws-ext_1_7_2_25_F_278| true)
(= |memory_model::choice_ws-ext_1_18_2_5_F_279| false)
(= |memory_model::choice_ws-ext_1_18_2_15_F_280| true)
(= |memory_model::choice_ws-ext_1_18_2_25_F_281| true)
(= |memory_model::choice_ws-ext_1_29_2_5_F_282| false)
(= |memory_model::choice_ws-ext_1_29_2_15_F_283| false)
(= |memory_model::choice_ws-ext_1_29_2_25_F_284| true)
(= |memory_model::choice_ws-ext_0_9_1_5_F_285| true)
(= |memory_model::choice_ws-ext_0_9_1_16_F_286| true)
(= |memory_model::choice_ws-ext_0_9_1_27_F_287| true)
(= |memory_model::choice_ws-ext_0_11_1_1_F_288| true)
(= |memory_model::choice_ws-ext_0_11_1_10_F_289| true)
(= |memory_model::choice_ws-ext_0_11_1_12_F_290| true)
(= |memory_model::choice_ws-ext_0_11_1_21_F_291| true)
(= |memory_model::choice_ws-ext_0_11_1_23_F_292| true)
(= |memory_model::choice_ws-ext_0_11_1_32_F_293| true)
(= |memory_model::choice_ws-ext_0_11_2_1_F_294| true)
(= |memory_model::choice_ws-ext_0_11_2_9_F_295| true)
(= |memory_model::choice_ws-ext_0_11_2_11_F_296| true)
(= |memory_model::choice_ws-ext_0_11_2_19_F_297| true)
(= |memory_model::choice_ws-ext_0_11_2_21_F_298| true)
(= |memory_model::choice_ws-ext_0_11_2_29_F_299| true)
(= |memory_model::choice_ws-ext_0_15_1_1_F_300| true)
(= |memory_model::choice_ws-ext_0_15_1_10_F_301| true)
(= |memory_model::choice_ws-ext_0_15_1_12_F_302| true)
(= |memory_model::choice_ws-ext_0_15_1_21_F_303| true)
(= |memory_model::choice_ws-ext_0_15_1_23_F_304| true)
(= |memory_model::choice_ws-ext_0_15_1_32_F_305| true)
(= |memory_model::choice_ws-ext_0_15_2_1_F_306| true)
(= |memory_model::choice_ws-ext_0_15_2_9_F_307| true)
(= |memory_model::choice_ws-ext_0_15_2_11_F_308| true)
(= |memory_model::choice_ws-ext_0_15_2_19_F_309| true)
(= |memory_model::choice_ws-ext_0_15_2_21_F_310| true)
(= |memory_model::choice_ws-ext_0_15_2_29_F_311| true)
(= |memory_model::choice_ws-ext_1_1_2_1_F_312| true)
(= |memory_model::choice_ws-ext_1_1_2_9_F_313| true)
(= |memory_model::choice_ws-ext_1_1_2_11_F_314| true)
(= |memory_model::choice_ws-ext_1_1_2_19_F_315| true)
(= |memory_model::choice_ws-ext_1_1_2_21_F_316| true)
(= |memory_model::choice_ws-ext_1_1_2_29_F_317| true)
(= |memory_model::choice_ws-ext_1_10_2_1_F_318| true)
(= |memory_model::choice_ws-ext_1_10_2_9_F_319| true)
(= |memory_model::choice_ws-ext_1_10_2_11_F_320| true)
(= |memory_model::choice_ws-ext_1_10_2_19_F_321| true)
(= |memory_model::choice_ws-ext_1_10_2_21_F_322| true)
(= |memory_model::choice_ws-ext_1_10_2_29_F_323| true)
(= |memory_model::choice_ws-ext_1_12_2_1_F_324| false)
(= |memory_model::choice_ws-ext_1_12_2_9_F_325| false)
(= |memory_model::choice_ws-ext_1_12_2_11_F_326| true)
(= |memory_model::choice_ws-ext_1_12_2_19_F_327| true)
(= |memory_model::choice_ws-ext_1_12_2_21_F_328| true)
(= |memory_model::choice_ws-ext_1_12_2_29_F_329| true)
(= |memory_model::choice_ws-ext_1_21_2_1_F_330| false)
(= |memory_model::choice_ws-ext_1_21_2_9_F_331| false)
(= |memory_model::choice_ws-ext_1_21_2_11_F_332| true)
(= |memory_model::choice_ws-ext_1_21_2_19_F_333| true)
(= |memory_model::choice_ws-ext_1_21_2_21_F_334| true)
(= |memory_model::choice_ws-ext_1_21_2_29_F_335| true)
(= |memory_model::choice_ws-ext_1_23_2_1_F_336| false)
(= |memory_model::choice_ws-ext_1_23_2_9_F_337| false)
(= |memory_model::choice_ws-ext_1_23_2_11_F_338| false)
(= |memory_model::choice_ws-ext_1_23_2_19_F_339| true)
(= |memory_model::choice_ws-ext_1_23_2_21_F_340| true)
(= |memory_model::choice_ws-ext_1_23_2_29_F_341| true)
(= |memory_model::choice_ws-ext_1_32_2_1_F_342| false)
(= |memory_model::choice_ws-ext_1_32_2_9_F_343| false)
(= |memory_model::choice_ws-ext_1_32_2_11_F_344| false)
(= |memory_model::choice_ws-ext_1_32_2_19_F_345| false)
(= |memory_model::choice_ws-ext_1_32_2_21_F_346| false)
(= |memory_model::choice_ws-ext_1_32_2_29_F_347| true)
(= |pthread_join::thread!0@1#1| #b00000000000000000000000000000001)
(= |pthread_join::thread!0@2#1| #b10000000000000000000000000000010)
(=
 |m#4|
 #b00000000000000000000000000000000000000000000000000000000000000000000000000000000000000000000000000000000000000000000000000000000000000000000000000000000000000000000000000000000000000000000000000000000000000000000000000000000000000000000000000000000000000000000000000000000000000000000000000000000000000000000000000000000)
(= |t1::1::tmp!1@1#2| #b00000000000000000000000011111110)
(=
 |m#10|
 #b00000000000000000000000000000000000000000000000000000000000000000000000000000000000000000000000000000000000000000000000000000000000000000000000000000000000000000000000000000000000000000000000000000000000000000000000000000000000000000000000000000000000000000000000000000000000000000000000000000000000000000000000000000000)
(= |t1::1::tmp!1@1#3| #b00000000000000000000000011111110)
(=
 |m#16|
 #b00000000000000000000000000000000000000000000000000000000000000000000000000000000000000000000000000000000000000000000000000000000000000000000000000000000000000000000000000000000000000000000000000000000000000000000000000000000000000000000000000000000000000000000000000000000000000000000000000000000000000000000000000000001)
(= |t1::1::tmp!1@1#4| #b00000000000000000000000000000000)
(=
 |m#22|
 #b00000000000000000000000000000000000000000000000000000000000000000000000000000000000000000000000000000000000000000000000000000000000000000000000000000000000000000000000000000000000000000000000000000000000000000000000000000000000000000000000000000000000000000000000000000000000000000000000000000000000000000000000000000000)
(=
 |m#28|
 #b00000000000000000000000000000000000000000000000000000000000000000000000000000000000000000000000000000000000000000000000000000000000000000000000000000000000000000000000000000000000000000000000000000000000000000000000000000000000000000000000000000000000000000000000000000000000000000000000000000000000000000000000000000000)
(=
 |m#34|
 #b00000000000000000000000000000000000000000000000000000000000000000000000000000000000000000000000000000000000000000000000000000000000000000000000000000000000000000000000000000000000000000000000000000000000000000000000000000000000000000000000000000000000000000000000000000000000000000000000000000000000000000000000000000000)
(= |__CPROVER_next_thread_id#3| #b00000000000000000000000000000001)
(= |main::1::id1!0@1#4| #b00000000000000000000000000000001)
(= |__CPROVER_next_thread_id#6| #b00000000000000000000000000000010)
(= |main::1::id2!0@1#4| #b10000000000000000000000000000010)
(= |__CPROVER_next_thread_id#7| #b00000000000000000000000000000010)
(=
 |m#3|
 #b00000000000000000000000000000000000000000000000000000000000000000000000000000000000000000000000000000000000000000000000000000000000000000000000000000000000000000000000000000000000000000000000000000000000000000000000000000000000000000000000000000000000000000000000000000000000000000000000000000000000000000000000000000000)
(= |nondet_symex::nondet1| #b00000000000000000000000011111110)
(= |top#2| #b00000000000000000000000000000000)
(= |top#3| #b00000000000000000000000000000000)
(= |top#4| #b00000000000000000000000000000000)
(=
 |m#6|
 #b00000000000000000000000000000000000000000000000000000000000000000000000000000000000000000000000000000000000000000000000000000000000000000000000000000000000000000000000000000000000000000000000000000000000000000000000000000000000000000000000000000000000000000000000000000000000000000000000000000000000000000000000000000001)
(=
 |m#9|
 #b00000000000000000000000000000000000000000000000000000000000000000000000000000000000000000000000000000000000000000000000000000000000000000000000000000000000000000000000000000000000000000000000000000000000000000000000000000000000000000000000000000000000000000000000000000000000000000000000000000000000000000000000000000000)
(= |nondet_symex::nondet2| #b00000000000000000000000011111110)
(= |top#6| #b00000000000000000000000000000000)
(= |top#7| #b00000000000000000000000000000000)
(= |top#8| #b00000000000000000000000000000000)
(=
 |m#12|
 #b00000000000000000000000000000000000000000000000000000000000000000000000000000000000000000000000000000000000000000000000000000000000000000000000000000000000000000000000000000000000000000000000000000000000000000000000000000000000000000000000000000000000000000000000000000000000000000000000000000000000000000000000000000001)
(=
 |m#15|
 #b00000000000000000000000000000000000000000000000000000000000000000000000000000000000000000000000000000000000000000000000000000000000000000000000000000000000000000000000000000000000000000000000000000000000000000000000000000000000000000000000000000000000000000000000000000000000000000000000000000000000000000000000000000001)
(= |nondet_symex::nondet3| #b00000000000000000000000000000000)
(= |top#10| #b00000000000000000000000000000001)
(= |top#11| #b00000000000000000000000000000001)
(= |top#12| #b00000000000000000000000000000001)
(=
 |m#18|
 #b00000000000000000000000000000000000000000000000000000000000000000000000000000000000000000000000000000000000000000000000000000000000000000000000000000000000000000000000000000000000000000000000000000000000000000000000000000000000000000000000000000000000000000000000000000000000000000000000000000000000000000000000010000001)
(=
 |m#21|
 #b00000000000000000000000000000000000000000000000000000000000000000000000000000000000000000000000000000000000000000000000000000000000000000000000000000000000000000000000000000000000000000000000000000000000000000000000000000000000000000000000000000000000000000000000000000000000000000000000000000000000000000000000000000000)
(= |flag#5| #b00000001)
(= |top#14| #b00000000000000000000000000000001)
(= |top#15| #b00000000000000000000000000000001)
(= |top#17| #b00000000000000000000000000000000)
(=
 |m#24|
 #b00000000000000000000000000000000000000000000000000000000000000000000000000000000000000000000000000000000000000000000000000000000000000000000000000000000000000000000000000000000000000000000000000000000000000000000000000000000000000000000000000000000000000000000000000000000000000000000000000000000000000000000000000000001)
(=
 |m#27|
 #b00000000000000000000000000000000000000000000000000000000000000000000000000000000000000000000000000000000000000000000000000000000000000000000000000000000000000000000000000000000000000000000000000000000000000000000000000000000000000000000000000000000000000000000000000000000000000000000000000000000000000000000000000000000)
(= |flag#6| #b00000001)
(= |top#18| #b00000000000000000000000000000001)
(= |top#19| #b00000000000000000000000000000001)
(= |top#21| #b00000000000000000000000000000000)
(=
 |m#30|
 #b00000000000000000000000000000000000000000000000000000000000000000000000000000000000000000000000000000000000000000000000000000000000000000000000000000000000000000000000000000000000000000000000000000000000000000000000000000000000000000000000000000000000000000000000000000000000000000000000000000000000000000000000000000001)
(=
 |m#33|
 #b00000000000000000000000000000000000000000000000000000000000000000000000000000000000000000000000000000000000000000000000000000000000000000000000000000000000000000000000000000000000000000000000000000000000000000000000000000000000000000000000000000000000000000000000000000000000000000000000000000000000000000000000000000000)
(= |flag#7| #b00000001)
(= |top#22| #b00000000000000000000000000000000)
(= |top#23| #b00000000000000000000000000000010)
(= |top#25| #b11000000000000000000000000000000)
(=
 |m#36|
 #b00000000000000000000000000000000000000000000000000000000000000000000000000000000000000000000000000000000000000000000000000000000000000000000000000000000000000000000000000000000000000000000000000000000000000000000000000000000000000000000000000000000000000000000000000000000000000000000000000000000000000000000000000000001)
(= |main::1::id1!0@1#1| #b10000000000000000000000000000001)
(= |main::1::id2!0@1#1| #b10000000000000000000000000000010)
(= |flag#1$wclk$8| #b0001010)
(= |flag#5$rclk$8| #b0100111)
(= |flag#2$wclk$8| #b0011100)
(= |flag#3$wclk$8| #b1101011)
(= |flag#4$wclk$8| #b1111101)
(= |flag#6$rclk$8| #b1110001)
(= |flag#7$rclk$8| #b1111001)
(= |top#1$wclk$8| #b0001100)
(= |top#2$rclk$8| #b0010100)
(= |top#16$wclk$8| #b0110000)
(= |top#20$wclk$8| #b1110100)
(= |top#24$wclk$8| #b1111100)
(= |top#3$rclk$8| #b0010101)
(= |top#4$rclk$8| #b0011001)
(= |top#6$rclk$8| #b1100101)
(= |top#7$rclk$8| #b1100110)
(= |top#8$rclk$8| #b1101001)
(= |top#10$rclk$8| #b1110110)
(= |top#11$rclk$8| #b1110111)
(= |top#12$rclk$8| #b1111010)
(= |top#14$rclk$8| #b0101000)
(= |top#5$wclk$8| #b0011010)
(= |top#9$wclk$8| #b1101010)
(= |top#13$wclk$8| #b1111011)
(= |top#15$rclk$8| #b0101001)
(= |top#17$rclk$8| #b0110100)
(= |top#18$rclk$8| #b1110010)
(= |top#19$rclk$8| #b1110011)
(= |top#21$rclk$8| #b1110101)
(= |top#22$rclk$8| #b1111010)
(= |top#23$rclk$8| #b1111011)
(= |top#25$rclk$8| #b1111101)
(= |arr#1$wclk$8| #b0001001)
(= |arr#2$rclk$8| #b0010110)
(= |arr#4$rclk$8| #b1100111)
(= |arr#6$rclk$8| #b1111000)
(= |arr#8$rclk$8| #b0110110)
(= |arr#3$wclk$8| #b0010111)
(= |arr#5$wclk$8| #b1101000)
(= |arr#7$wclk$8| #b1111001)
(= |arr#9$rclk$8| #b1110110)
(= |arr#10$rclk$8| #b1111110)
(= |m#1$wclk$8| #b0001011)
(= |m#3$rclk$8| #b0010011)
(= |m#2$wclk$8| #b0001111)
(= |m#23$wclk$8| #b0011110)
(= |m#26$wclk$8| #b1000111)
(= |m#29$wclk$8| #b1110000)
(= |m#32$wclk$8| #b1110111)
(= |m#35$wclk$8| #b1111000)
(= |m#38$wclk$8| #b1111111)
(= |m#6$rclk$8| #b0011101)
(= |m#9$rclk$8| #b1100100)
(= |m#12$rclk$8| #b1101100)
(= |m#15$rclk$8| #b1110101)
(= |m#18$rclk$8| #b1111110)
(= |m#21$rclk$8| #b0011110)
(= |m#5$wclk$8| #b0010011)
(= |m#8$wclk$8| #b0011101)
(= |m#11$wclk$8| #b1100100)
(= |m#14$wclk$8| #b1101100)
(= |m#17$wclk$8| #b1110101)
(= |m#20$wclk$8| #b1111110)
(= |m#24$rclk$8| #b1000111)
(= |m#27$rclk$8| #b1110000)
(= |m#30$rclk$8| #b1110111)
(= |m#33$rclk$8| #b1111000)
(= |m#36$rclk$8| #b1111111)
(= |main::1::id1!0@1#3| #b00000000000000000000000000000001)
(= |main::1::id2!0@1#3| #b00000000000000000000000000000010)
(= t1$18$spwnclk$8 #b0010010)
(= t1$22$spwnclk$8 #b0010101)
(= |__CPROVER_dead_object#1$wclk$8| #b0000000)
(= |__CPROVER_deallocated#1$wclk$8| #b0000001)
(= |__CPROVER_malloc_is_new_array#1$wclk$8| #b0000010)
(= |__CPROVER_malloc_object#1$wclk$8| #b0000011)
(= |__CPROVER_malloc_size#1$wclk$8| #b0000100)
(= |__CPROVER_memory_leak#1$wclk$8| #b0000101)
(= |__CPROVER_next_thread_id#1$wclk$8| #b0000110)
(= |__CPROVER_pipe_count#1$wclk$8| #b0000111)
(= |__CPROVER_threads_exited#1$wclk$8| #b0001000)
(= |main::1::id1!0@1#1$wclk$8| #b0001101)
(= |main::1::id2!0@1#1$wclk$8| #b0001110)
(= |__CPROVER_next_thread_id#2$wclk$8| #b0010000)
(= |main::1::id1!0@1#2$wclk$8| #b0010001)
(= |__CPROVER_next_thread_id#3$rclk$8| #b0010011)
(= |__CPROVER_next_thread_id#5$wclk$8| #b0010011)
(= |main::1::id2!0@1#2$wclk$8| #b0010100)
(= |main::1::id1!0@1#3$rclk$8| #b1100000)
(= |main::1::id1!0@1#4$rclk$8| #b1110000)
(= |__CPROVER_next_thread_id#6$rclk$8| #b1110100)
(= |__CPROVER_threads_exited#2$rclk$8| #b1111000)
(= |main::1::id2!0@1#3$rclk$8| #b1111100)
(= |main::1::id2!0@1#4$rclk$8| #b1111101)
(= |__CPROVER_next_thread_id#7$rclk$8| #b1111110)
(= |__CPROVER_threads_exited#3$rclk$8| #b1111111)
(= |__CPROVER_threads_exited#2| @fun_852)
(= |__CPROVER_threads_exited#3| @fun_854)
(= array_of.0 @fun_852)
(= array.1 @fun_807)
(= array.2 @fun_848)
(= |arr#2| @fun_807)
(= |arr#4| @fun_850)
(= |arr#6| @fun_856)
(= |arr#8| @fun_850)
(= |arr#9| @fun_850)
(= |arr#10| @fun_850)
(function @fun_852
 (type (Array (_ BitVec 32) (_ BitVec 1)))
 (default #b0))
(function @fun_854
 (type (Array (_ BitVec 32) (_ BitVec 1)))
 (default #b1))
(function @fun_807
 (type (Array (_ BitVec 32) (_ BitVec 32)))
 (= (@fun_807 #b11000000000000000000000000000000) #b11111111111111111111111111111110)
 (default #b00000000000000000000000000000000))
(function @fun_848
 (type (Array (_ BitVec 32) (_ BitVec 8)))
 (default #b00000000))
(function @fun_850
 (type (Array (_ BitVec 32) (_ BitVec 32)))
 (= (@fun_850 #b11000000000000000000000000000000) #b11111111111111111111111111111110)
 (= (@fun_850 #b00000000000000000000000000000000) #b00000000000000000000000011111110)
 (default #b00000000000000000000000000000000))
(function @fun_856
 (type (Array (_ BitVec 32) (_ BitVec 32)))
 (= (@fun_856 #b11000000000000000000000000000000) #b11111111111111111111111111111110)
 (= (@fun_856 #b00000000000000000000000000000000) #b00000000000000000000000011111110)
 (= (@fun_856 #b00000000000000000000000000000001) #b00000000000000000000000011111110)
 (default #b00000000000000000000000000000000))

real	0m0.318s
user	0m0.307s
sys	0m0.010s
State: AC Run_time: 0.31984543800354004